9240
9240
9240
9240
9240
9249
9249
9249
9249
9249
9249
9249
9249
9249
9249
9249
9249
9249
9249
9249
9249
9249
9249
9249
9249
9249
9249
9249
9249
9249
9249
9249
9249
9249
9249
9249
9249
9249
9249
9249
9249
9249
9249
9249
9249
9249
9249
9249
9249
9249
9249
9249
9252
9252
9252
9252
9252
9252
9252
9252
9252
9252
9252
9252
9252
9252
9252
9252
9252
9252
9252
9252
9252
9252
9252
9252
9252
9252
9252
9252
9252
9252
9252
9252
9252
9252
9252
9252
9252
9252
9252
9252
9252
9252
9252
9252
9252
9252
9252
